NAME: generated_7_sym_1_20_UniformDistrib_noSparse.tsp
TYPE: TSP
COMMENT: Test case generated with custom generator!
DIMENSION: 7
EDGE_WEIGHT_TYPE: EXPLICIT
EDGE_WEIGHT_FORMAT: FULL_MATRIX
DISPLAY_DATA_TYPE: TWOD_DISPLAY
EDGE_WEIGHT_SECTION
0 12 6 9 16 2 17 
12 0 3 19 14 14 11 
6 3 0 12 8 12 8 
9 19 12 0 1 1 12 
16 14 8 1 0 5 3 
2 14 12 1 5 0 8 
17 11 8 12 3 8 0 
